************************************************************************
file with basedata            : mm50_.bas
initial value random generator: 1256871276
************************************************************************
projects                      :  1
jobs (incl. supersource/sink ):  12
horizon                       :  76
RESOURCES
  - renewable                 :  2   R
  - nonrenewable              :  2   N
  - doubly constrained        :  0   D
************************************************************************
PROJECT INFORMATION:
pronr.  #jobs rel.date duedate tardcost  MPM-Time
    1     10      0        9        4        9
************************************************************************
PRECEDENCE RELATIONS:
jobnr.    #modes  #successors   successors
   0        1          3           1   2   3
   1        3          1           7
   2        3          2           5   9
   3        3          2           4   6
   4        3          2           8   9
   5        3          1          10
   6        3          1           8
   7        3          3           8   9  10
   8        3          1          11
   9        3          1          11
  10        3          1          11
  11        1          0        
************************************************************************
REQUESTS/DURATIONS:
jobnr. mode duration  R 1  R 2  R 3  R 4  E(W 1)  E(W 2)
------------------------------------------------------------------------
  0      1     0       0    0    0    0     0       0
  1      1     4       9    5    0    8    56      32
  2      1     4       8    7    0    5    60      20
  3      1     2       6   10    0    7    32      14
  4      1     4       9    9    5    0    72      20
  5      1     1       5    8    5    0    13       5
  6      1     2       7    8    4    0    30       8
  7      1     1       6    4    4    0    10       4
  8      1     1       9    9    5    0    18       5
  9      1     3       4    9    0    5    39      15
 10      1     4       5   10    6    0    60      24
 11      1     0       0    0    0    0     0       0
************************************************************************
RESOURCEAVAILABILITIES:
  R 1  R 2
   49   59
************************************************************************
RESOURCE LIMITS:
jobnr.  l(R 1)  u(R 1)  l(R 2)  u(R 2)
------------------------------------------------------------------------
  0        0       0       0       0
  1        8      14       4       8
  2        8      15       3       5
  3        8      16       4       7
  4       10      18       3       5
  5        7      13       3       5
  6        8      15       2       4
  7        5      10       2       4
  8       10      18       3       5
  9        7      13       3       5
 10        8      15       3       6
 11        0       0       0       0
************************************************************************
SCENARIOS:
------------------------------------------------------------------------
RESOURCE k = 1
s = 1: (0, 48, 60, 26, 61, 11, 30, 11, 18, 31, 94, 0)
s = 2: (0, 65, 58, 28, 65, 9, 32, 11, 24, 43, 56, 0)
s = 3: (0, 51, 51, 22, 84, 12, 21, 13, 22, 44, 84, 0)
s = 4: (0, 54, 37, 42, 56, 16, 30, 10, 29, 42, 73, 0)
s = 5: (0, 44, 51, 40, 109, 10, 43, 9, 26, 44, 99, 0)
s = 6: (0, 69, 39, 29, 55, 9, 28, 12, 22, 29, 93, 0)
s = 7: (0, 77, 36, 18, 52, 20, 30, 6, 13, 25, 62, 0)
s = 8: (0, 52, 60, 52, 58, 10, 20, 14, 19, 75, 87, 0)
s = 9: (0, 83, 46, 35, 68, 20, 22, 12, 16, 42, 107, 0)
s = 10: (0, 32, 45, 21, 53, 9, 29, 10, 17, 32, 49, 0)
s = 11: (0, 36, 80, 40, 68, 15, 42, 13, 18, 52, 45, 0)
s = 12: (0, 37, 63, 43, 56, 11, 26, 8, 11, 58, 46, 0)
s = 13: (0, 71, 74, 26, 101, 9, 37, 9, 19, 33, 78, 0)
s = 14: (0, 60, 54, 36, 98, 20, 39, 11, 20, 37, 54, 0)
s = 15: (0, 44, 45, 34, 109, 11, 30, 9, 12, 49, 53, 0)
s = 16: (0, 70, 74, 23, 77, 16, 19, 13, 23, 25, 86, 0)
s = 17: (0, 43, 45, 36, 71, 9, 46, 11, 17, 54, 71, 0)
s = 18: (0, 38, 40, 24, 49, 14, 25, 17, 29, 40, 56, 0)
s = 19: (0, 58, 38, 41, 65, 10, 35, 11, 17, 38, 66, 0)
s = 20: (0, 78, 64, 22, 76, 10, 23, 19, 17, 39, 59, 0)
s = 21: (0, 42, 53, 27, 69, 11, 39, 6, 11, 27, 44, 0)
s = 22: (0, 50, 69, 43, 65, 13, 41, 7, 18, 37, 71, 0)
s = 23: (0, 45, 37, 30, 50, 20, 33, 10, 22, 41, 51, 0)
s = 24: (0, 46, 50, 32, 80, 10, 31, 11, 19, 29, 48, 0)
s = 25: (0, 80, 58, 36, 90, 12, 27, 12, 18, 24, 76, 0)
s = 26: (0, 63, 43, 50, 98, 9, 33, 12, 14, 43, 42, 0)
s = 27: (0, 51, 39, 31, 66, 21, 39, 13, 30, 38, 70, 0)
s = 28: (0, 40, 50, 54, 98, 14, 31, 7, 18, 32, 45, 0)
s = 29: (0, 46, 74, 22, 67, 13, 33, 8, 16, 37, 97, 0)
s = 30: (0, 55, 31, 23, 39, 20, 29, 15, 19, 46, 72, 0)
s = 31: (0, 69, 59, 37, 68, 19, 25, 10, 20, 32, 50, 0)
s = 32: (0, 46, 39, 18, 79, 13, 37, 7, 18, 24, 62, 0)
s = 33: (0, 47, 39, 27, 46, 15, 40, 16, 19, 32, 48, 0)
s = 34: (0, 41, 44, 43, 83, 12, 34, 10, 25, 56, 57, 0)
s = 35: (0, 83, 47, 39, 111, 11, 28, 11, 32, 51, 42, 0)
s = 36: (0, 58, 33, 29, 56, 17, 24, 7, 24, 36, 41, 0)
s = 37: (0, 48, 38, 26, 86, 9, 36, 9, 10, 39, 42, 0)
s = 38: (0, 80, 45, 28, 73, 15, 29, 13, 15, 41, 54, 0)
s = 39: (0, 87, 80, 24, 74, 10, 29, 12, 18, 27, 61, 0)
s = 40: (0, 53, 73, 30, 66, 8, 40, 7, 23, 37, 86, 0)
s = 41: (0, 41, 50, 33, 81, 17, 33, 16, 13, 28, 72, 0)
s = 42: (0, 36, 95, 29, 84, 17, 32, 15, 22, 43, 48, 0)
s = 43: (0, 41, 57, 33, 75, 26, 23, 6, 28, 45, 76, 0)
s = 44: (0, 49, 67, 26, 66, 10, 27, 11, 13, 39, 87, 0)
s = 45: (0, 85, 85, 49, 76, 14, 27, 8, 21, 38, 56, 0)
s = 46: (0, 44, 65, 40, 60, 11, 22, 8, 15, 33, 66, 0)
s = 47: (0, 86, 62, 28, 71, 14, 25, 13, 18, 72, 69, 0)
s = 48: (0, 61, 45, 39, 48, 12, 24, 10, 16, 45, 35, 0)
s = 49: (0, 79, 58, 23, 79, 13, 17, 20, 18, 26, 53, 0)
s = 50: (0, 45, 76, 47, 61, 9, 30, 9, 19, 45, 37, 0)
s = 51: (0, 42, 50, 49, 98, 10, 36, 7, 21, 35, 94, 0)
s = 52: (0, 38, 64, 51, 65, 7, 19, 12, 22, 38, 64, 0)
s = 53: (0, 57, 55, 32, 44, 11, 30, 12, 13, 54, 45, 0)
s = 54: (0, 33, 62, 36, 59, 10, 47, 8, 26, 41, 102, 0)
s = 55: (0, 37, 67, 31, 67, 11, 25, 7, 21, 29, 86, 0)
s = 56: (0, 42, 48, 22, 51, 20, 22, 10, 19, 40, 59, 0)
s = 57: (0, 40, 64, 22, 91, 9, 42, 11, 17, 39, 73, 0)
s = 58: (0, 43, 77, 22, 93, 13, 28, 10, 13, 45, 60, 0)
s = 59: (0, 93, 52, 41, 90, 12, 45, 12, 15, 23, 39, 0)
s = 60: (0, 68, 64, 18, 66, 13, 20, 9, 22, 28, 37, 0)
s = 61: (0, 59, 39, 21, 97, 15, 30, 9, 19, 51, 48, 0)
s = 62: (0, 63, 61, 41, 87, 20, 41, 12, 11, 43, 58, 0)
s = 63: (0, 45, 83, 30, 51, 9, 36, 12, 14, 26, 68, 0)
s = 64: (0, 63, 46, 49, 61, 11, 39, 10, 25, 28, 58, 0)
s = 65: (0, 59, 42, 48, 100, 11, 24, 13, 20, 54, 93, 0)
s = 66: (0, 43, 95, 50, 44, 24, 25, 10, 21, 30, 65, 0)
s = 67: (0, 55, 36, 20, 87, 17, 34, 14, 18, 27, 47, 0)
s = 68: (0, 67, 51, 39, 81, 12, 29, 9, 16, 36, 62, 0)
s = 69: (0, 82, 49, 26, 41, 16, 30, 9, 20, 27, 66, 0)
s = 70: (0, 66, 73, 30, 46, 18, 26, 9, 12, 32, 49, 0)
s = 71: (0, 63, 66, 20, 113, 10, 35, 12, 16, 32, 49, 0)
s = 72: (0, 33, 38, 33, 82, 11, 46, 9, 12, 31, 69, 0)
s = 73: (0, 60, 71, 25, 75, 23, 23, 11, 13, 27, 79, 0)
s = 74: (0, 49, 56, 22, 50, 18, 24, 20, 18, 32, 62, 0)
s = 75: (0, 75, 69, 31, 81, 17, 39, 10, 13, 51, 44, 0)
s = 76: (0, 72, 59, 38, 60, 21, 29, 7, 19, 27, 86, 0)
s = 77: (0, 53, 46, 25, 76, 16, 30, 8, 19, 27, 84, 0)
s = 78: (0, 42, 64, 27, 71, 8, 21, 18, 21, 37, 55, 0)
s = 79: (0, 41, 52, 23, 44, 12, 23, 8, 31, 67, 62, 0)
s = 80: (0, 42, 65, 30, 78, 8, 34, 17, 19, 70, 74, 0)
s = 81: (0, 63, 83, 45, 65, 20, 41, 12, 18, 36, 68, 0)
s = 82: (0, 70, 67, 23, 77, 15, 26, 12, 26, 47, 75, 0)
s = 83: (0, 69, 33, 20, 56, 13, 22, 9, 27, 40, 40, 0)
s = 84: (0, 62, 61, 50, 53, 10, 29, 7, 17, 47, 58, 0)
s = 85: (0, 42, 68, 33, 69, 13, 33, 12, 20, 49, 64, 0)
s = 86: (0, 88, 63, 21, 69, 13, 32, 10, 19, 35, 47, 0)
s = 87: (0, 43, 66, 32, 90, 18, 39, 12, 23, 30, 76, 0)
s = 88: (0, 42, 58, 25, 68, 11, 46, 9, 15, 46, 38, 0)
s = 89: (0, 66, 61, 27, 52, 13, 25, 15, 27, 39, 46, 0)
s = 90: (0, 44, 53, 25, 55, 21, 27, 9, 20, 26, 69, 0)
s = 91: (0, 70, 59, 21, 70, 16, 32, 15, 11, 35, 83, 0)
s = 92: (0, 45, 37, 30, 93, 9, 41, 18, 12, 26, 37, 0)
s = 93: (0, 65, 48, 24, 63, 10, 53, 9, 15, 27, 46, 0)
s = 94: (0, 44, 55, 27, 60, 11, 20, 14, 15, 39, 74, 0)
s = 95: (0, 64, 45, 35, 79, 9, 35, 10, 18, 49, 62, 0)
s = 96: (0, 77, 119, 34, 61, 22, 26, 7, 21, 30, 36, 0)
s = 97: (0, 41, 74, 34, 53, 13, 31, 10, 16, 30, 43, 0)
s = 98: (0, 86, 49, 32, 57, 15, 47, 12, 17, 35, 67, 0)
s = 99: (0, 54, 57, 20, 52, 18, 34, 10, 25, 38, 44, 0)
s = 100: (0, 64, 39, 25, 72, 11, 26, 10, 19, 45, 83, 0)
s = 101: (0, 75, 62, 25, 56, 14, 17, 12, 28, 43, 60, 0)
s = 102: (0, 51, 61, 45, 70, 12, 40, 8, 29, 54, 40, 0)
s = 103: (0, 49, 70, 35, 98, 9, 24, 9, 22, 32, 69, 0)
s = 104: (0, 89, 76, 46, 86, 13, 32, 9, 15, 38, 52, 0)
s = 105: (0, 73, 44, 22, 100, 11, 30, 16, 13, 54, 49, 0)
s = 106: (0, 74, 84, 38, 65, 16, 36, 14, 21, 46, 96, 0)
s = 107: (0, 56, 76, 23, 55, 9, 37, 9, 20, 45, 49, 0)
s = 108: (0, 39, 67, 41, 83, 20, 30, 9, 34, 26, 86, 0)
s = 109: (0, 66, 68, 51, 44, 8, 20, 6, 31, 26, 103, 0)
s = 110: (0, 54, 77, 43, 93, 15, 24, 9, 11, 30, 99, 0)
s = 111: (0, 59, 59, 38, 81, 12, 21, 11, 12, 24, 49, 0)
s = 112: (0, 42, 55, 21, 63, 17, 21, 8, 14, 45, 45, 0)
s = 113: (0, 44, 61, 26, 79, 8, 19, 10, 10, 48, 78, 0)
s = 114: (0, 42, 45, 29, 80, 21, 29, 10, 13, 30, 48, 0)
s = 115: (0, 41, 45, 29, 49, 21, 23, 16, 20, 27, 102, 0)
s = 116: (0, 77, 70, 27, 48, 8, 40, 12, 32, 46, 58, 0)
s = 117: (0, 52, 49, 46, 50, 7, 26, 10, 23, 47, 50, 0)
s = 118: (0, 36, 58, 56, 97, 17, 21, 15, 20, 34, 63, 0)
s = 119: (0, 36, 56, 25, 99, 15, 25, 10, 30, 36, 58, 0)
s = 120: (0, 55, 54, 25, 79, 17, 53, 19, 24, 25, 62, 0)
s = 121: (0, 82, 42, 23, 52, 11, 39, 9, 25, 42, 70, 0)
s = 122: (0, 48, 46, 34, 124, 7, 28, 16, 20, 41, 41, 0)
s = 123: (0, 50, 59, 33, 84, 23, 22, 12, 23, 36, 34, 0)
s = 124: (0, 72, 48, 43, 72, 18, 34, 8, 13, 40, 62, 0)
s = 125: (0, 45, 113, 43, 75, 17, 36, 12, 24, 45, 55, 0)
s = 126: (0, 39, 83, 35, 110, 9, 24, 7, 11, 35, 58, 0)
s = 127: (0, 39, 46, 38, 77, 11, 27, 15, 14, 25, 59, 0)
s = 128: (0, 99, 60, 36, 57, 14, 30, 8, 19, 60, 88, 0)
s = 129: (0, 71, 40, 32, 79, 17, 18, 7, 21, 56, 96, 0)
s = 130: (0, 51, 78, 30, 68, 9, 38, 10, 23, 54, 95, 0)
s = 131: (0, 50, 72, 24, 53, 16, 28, 10, 17, 28, 58, 0)
s = 132: (0, 60, 38, 45, 55, 10, 28, 11, 18, 28, 53, 0)
s = 133: (0, 51, 81, 25, 58, 11, 24, 13, 18, 67, 97, 0)
s = 134: (0, 40, 73, 25, 76, 17, 24, 11, 18, 36, 54, 0)
s = 135: (0, 63, 58, 32, 65, 15, 41, 9, 19, 47, 79, 0)
s = 136: (0, 60, 36, 32, 75, 10, 26, 6, 18, 23, 53, 0)
s = 137: (0, 50, 63, 33, 50, 8, 33, 7, 21, 40, 99, 0)
s = 138: (0, 54, 61, 25, 120, 15, 29, 9, 19, 28, 67, 0)
s = 139: (0, 45, 64, 31, 88, 11, 39, 15, 19, 34, 76, 0)
s = 140: (0, 71, 55, 38, 67, 11, 29, 15, 14, 26, 76, 0)
s = 141: (0, 61, 54, 30, 74, 17, 18, 11, 17, 52, 71, 0)
s = 142: (0, 86, 93, 26, 54, 18, 26, 15, 13, 55, 68, 0)
s = 143: (0, 86, 65, 25, 82, 13, 41, 9, 11, 51, 91, 0)
s = 144: (0, 55, 58, 34, 123, 17, 25, 10, 19, 42, 58, 0)
s = 145: (0, 60, 60, 29, 64, 24, 17, 13, 15, 64, 66, 0)
s = 146: (0, 40, 83, 31, 59, 11, 41, 18, 31, 31, 81, 0)
s = 147: (0, 96, 40, 35, 52, 17, 26, 15, 13, 33, 68, 0)
s = 148: (0, 48, 36, 27, 70, 9, 21, 17, 25, 30, 45, 0)
s = 149: (0, 70, 60, 35, 72, 10, 35, 9, 22, 47, 44, 0)
s = 150: (0, 81, 45, 31, 48, 10, 27, 15, 25, 46, 45, 0)
s = 151: (0, 46, 84, 25, 104, 19, 27, 14, 13, 54, 44, 0)
s = 152: (0, 65, 82, 42, 61, 14, 21, 10, 16, 36, 45, 0)
s = 153: (0, 96, 61, 24, 94, 14, 37, 6, 14, 47, 64, 0)
s = 154: (0, 81, 95, 35, 46, 10, 30, 10, 27, 36, 68, 0)
s = 155: (0, 35, 44, 33, 105, 18, 64, 13, 16, 28, 70, 0)
s = 156: (0, 44, 44, 19, 85, 9, 33, 10, 24, 48, 52, 0)
s = 157: (0, 35, 63, 33, 67, 15, 24, 15, 21, 52, 47, 0)
s = 158: (0, 54, 46, 32, 53, 11, 24, 11, 23, 32, 95, 0)
s = 159: (0, 72, 47, 24, 80, 13, 35, 10, 16, 47, 47, 0)
s = 160: (0, 50, 92, 36, 59, 9, 31, 8, 13, 59, 48, 0)
s = 161: (0, 31, 44, 33, 46, 16, 40, 8, 12, 23, 38, 0)
s = 162: (0, 57, 62, 35, 59, 16, 20, 11, 20, 39, 56, 0)
s = 163: (0, 61, 75, 27, 45, 10, 23, 7, 17, 45, 51, 0)
s = 164: (0, 42, 51, 37, 74, 14, 36, 11, 17, 36, 59, 0)
s = 165: (0, 41, 56, 38, 83, 13, 27, 10, 17, 51, 49, 0)
s = 166: (0, 55, 52, 40, 52, 10, 22, 7, 21, 39, 52, 0)
s = 167: (0, 35, 59, 28, 56, 14, 38, 9, 14, 32, 51, 0)
s = 168: (0, 39, 96, 20, 79, 17, 27, 11, 18, 43, 95, 0)
s = 169: (0, 65, 62, 29, 66, 8, 40, 11, 17, 53, 46, 0)
s = 170: (0, 75, 97, 27, 103, 18, 20, 9, 13, 55, 47, 0)
s = 171: (0, 35, 63, 27, 61, 18, 18, 10, 19, 42, 53, 0)
s = 172: (0, 55, 37, 24, 63, 18, 39, 14, 18, 52, 43, 0)
s = 173: (0, 79, 39, 31, 73, 13, 19, 13, 14, 57, 45, 0)
s = 174: (0, 64, 31, 28, 60, 17, 26, 10, 17, 36, 81, 0)
s = 175: (0, 40, 41, 25, 85, 10, 21, 9, 18, 39, 74, 0)
s = 176: (0, 68, 75, 31, 56, 10, 21, 10, 14, 29, 63, 0)
s = 177: (0, 54, 81, 55, 79, 8, 41, 11, 18, 46, 52, 0)
s = 178: (0, 43, 65, 32, 42, 16, 28, 8, 26, 30, 99, 0)
s = 179: (0, 38, 63, 32, 97, 9, 24, 12, 26, 25, 45, 0)
s = 180: (0, 45, 73, 24, 94, 12, 35, 8, 30, 44, 60, 0)
s = 181: (0, 43, 80, 26, 75, 10, 35, 12, 26, 55, 58, 0)
s = 182: (0, 85, 61, 37, 86, 12, 36, 11, 30, 49, 49, 0)
s = 183: (0, 77, 46, 27, 66, 16, 37, 7, 26, 35, 44, 0)
s = 184: (0, 55, 66, 30, 47, 19, 22, 15, 18, 42, 45, 0)
s = 185: (0, 85, 48, 44, 50, 11, 18, 7, 16, 39, 33, 0)
s = 186: (0, 60, 73, 38, 82, 11, 23, 11, 16, 27, 49, 0)
s = 187: (0, 92, 62, 48, 84, 19, 24, 11, 22, 55, 62, 0)
s = 188: (0, 82, 47, 28, 66, 24, 25, 6, 20, 48, 64, 0)
s = 189: (0, 34, 56, 42, 96, 10, 22, 11, 21, 55, 45, 0)
s = 190: (0, 45, 39, 32, 50, 10, 40, 13, 24, 45, 47, 0)
s = 191: (0, 85, 50, 46, 92, 16, 31, 15, 20, 39, 36, 0)
s = 192: (0, 33, 70, 29, 101, 14, 19, 12, 19, 46, 60, 0)
s = 193: (0, 50, 73, 41, 95, 10, 41, 12, 18, 46, 74, 0)
s = 194: (0, 64, 48, 28, 107, 18, 29, 13, 23, 36, 68, 0)
s = 195: (0, 34, 67, 26, 43, 15, 20, 14, 12, 57, 56, 0)
s = 196: (0, 61, 44, 31, 74, 17, 27, 9, 20, 64, 46, 0)
s = 197: (0, 51, 66, 48, 80, 13, 32, 10, 17, 24, 65, 0)
s = 198: (0, 57, 64, 26, 51, 20, 21, 8, 15, 32, 49, 0)
s = 199: (0, 36, 79, 49, 37, 9, 36, 12, 15, 36, 61, 0)
s = 200: (0, 83, 48, 32, 67, 13, 36, 11, 19, 62, 76, 0)
------------------------------------------------------------------------
RESOURCE k = 2
s = 1: (0, 28, 20, 12, 17, 4, 8, 5, 5, 12, 38, 0)
s = 2: (0, 38, 20, 13, 18, 4, 9, 5, 7, 17, 23, 0)
s = 3: (0, 29, 17, 10, 24, 5, 6, 6, 7, 17, 34, 0)
s = 4: (0, 31, 13, 18, 16, 6, 8, 4, 9, 16, 30, 0)
s = 5: (0, 26, 17, 18, 31, 4, 12, 4, 8, 17, 40, 0)
s = 6: (0, 39, 13, 13, 16, 4, 8, 5, 7, 11, 38, 0)
s = 7: (0, 44, 12, 8, 15, 8, 8, 3, 4, 10, 25, 0)
s = 8: (0, 30, 20, 23, 16, 4, 6, 6, 6, 29, 35, 0)
s = 9: (0, 47, 16, 16, 19, 8, 6, 5, 5, 17, 43, 0)
s = 10: (0, 18, 15, 10, 15, 4, 8, 4, 5, 13, 20, 0)
s = 11: (0, 21, 27, 18, 19, 6, 11, 6, 5, 20, 18, 0)
s = 12: (0, 21, 21, 19, 16, 5, 7, 4, 3, 23, 19, 0)
s = 13: (0, 41, 25, 12, 28, 4, 10, 4, 6, 13, 31, 0)
s = 14: (0, 34, 18, 16, 27, 8, 11, 5, 6, 14, 22, 0)
s = 15: (0, 25, 15, 15, 31, 4, 8, 4, 4, 19, 22, 0)
s = 16: (0, 40, 25, 10, 22, 7, 5, 6, 7, 10, 35, 0)
s = 17: (0, 25, 15, 16, 20, 4, 13, 5, 5, 21, 29, 0)
s = 18: (0, 22, 14, 11, 14, 6, 7, 7, 8, 16, 23, 0)
s = 19: (0, 33, 13, 18, 18, 4, 10, 5, 5, 15, 27, 0)
s = 20: (0, 45, 22, 10, 21, 4, 7, 8, 5, 15, 24, 0)
s = 21: (0, 24, 18, 12, 19, 4, 11, 3, 3, 11, 18, 0)
s = 22: (0, 29, 23, 19, 19, 5, 11, 3, 5, 14, 29, 0)
s = 23: (0, 26, 13, 13, 14, 8, 9, 4, 6, 16, 21, 0)
s = 24: (0, 26, 17, 14, 23, 4, 9, 5, 6, 11, 19, 0)
s = 25: (0, 46, 20, 16, 25, 5, 8, 5, 5, 9, 31, 0)
s = 26: (0, 36, 15, 22, 28, 4, 9, 5, 4, 17, 17, 0)
s = 27: (0, 29, 13, 14, 19, 8, 11, 5, 9, 15, 28, 0)
s = 28: (0, 23, 17, 24, 27, 6, 9, 3, 5, 13, 18, 0)
s = 29: (0, 26, 25, 10, 19, 5, 9, 4, 5, 15, 39, 0)
s = 30: (0, 32, 11, 10, 11, 8, 8, 6, 6, 18, 29, 0)
s = 31: (0, 40, 20, 17, 19, 7, 7, 4, 6, 13, 20, 0)
s = 32: (0, 27, 13, 8, 22, 5, 10, 3, 5, 10, 25, 0)
s = 33: (0, 27, 13, 12, 13, 6, 11, 7, 6, 13, 20, 0)
s = 34: (0, 23, 15, 19, 24, 5, 9, 4, 7, 22, 23, 0)
s = 35: (0, 48, 16, 18, 31, 5, 8, 5, 9, 20, 17, 0)
s = 36: (0, 33, 11, 13, 16, 7, 7, 3, 7, 14, 17, 0)
s = 37: (0, 27, 13, 12, 24, 4, 10, 4, 3, 15, 17, 0)
s = 38: (0, 46, 15, 13, 21, 6, 8, 5, 5, 16, 22, 0)
s = 39: (0, 50, 27, 11, 21, 4, 8, 5, 5, 11, 25, 0)
s = 40: (0, 30, 25, 13, 19, 3, 11, 3, 7, 14, 35, 0)
s = 41: (0, 24, 17, 15, 23, 7, 9, 7, 4, 11, 29, 0)
s = 42: (0, 21, 32, 13, 24, 7, 9, 6, 6, 17, 19, 0)
s = 43: (0, 24, 19, 15, 21, 10, 6, 3, 8, 18, 31, 0)
s = 44: (0, 28, 23, 12, 19, 4, 8, 5, 4, 15, 35, 0)
s = 45: (0, 49, 29, 22, 21, 6, 8, 4, 6, 15, 23, 0)
s = 46: (0, 25, 22, 18, 17, 4, 6, 4, 5, 13, 27, 0)
s = 47: (0, 50, 21, 13, 20, 6, 7, 5, 5, 28, 28, 0)
s = 48: (0, 35, 15, 17, 14, 5, 7, 4, 5, 18, 14, 0)
s = 49: (0, 46, 20, 11, 22, 5, 5, 8, 5, 10, 22, 0)
s = 50: (0, 26, 26, 21, 17, 4, 8, 4, 6, 18, 15, 0)
s = 51: (0, 24, 17, 22, 28, 4, 10, 3, 6, 14, 38, 0)
s = 52: (0, 22, 22, 23, 18, 3, 5, 5, 6, 15, 26, 0)
s = 53: (0, 33, 19, 14, 13, 4, 8, 5, 4, 21, 18, 0)
s = 54: (0, 19, 21, 16, 17, 4, 13, 3, 8, 16, 41, 0)
s = 55: (0, 21, 23, 14, 19, 5, 7, 3, 6, 12, 35, 0)
s = 56: (0, 24, 16, 10, 15, 8, 6, 4, 6, 16, 24, 0)
s = 57: (0, 23, 22, 10, 26, 4, 12, 5, 5, 15, 30, 0)
s = 58: (0, 25, 26, 10, 26, 5, 8, 4, 4, 18, 24, 0)
s = 59: (0, 53, 18, 18, 25, 5, 12, 5, 4, 9, 16, 0)
s = 60: (0, 39, 22, 8, 19, 5, 6, 4, 6, 11, 15, 0)
s = 61: (0, 34, 13, 10, 27, 6, 8, 4, 6, 20, 19, 0)
s = 62: (0, 36, 21, 18, 24, 8, 11, 5, 3, 17, 24, 0)
s = 63: (0, 26, 28, 14, 14, 4, 10, 5, 4, 10, 28, 0)
s = 64: (0, 36, 16, 22, 17, 5, 11, 4, 7, 11, 24, 0)
s = 65: (0, 34, 14, 21, 28, 5, 7, 5, 6, 21, 37, 0)
s = 66: (0, 25, 32, 22, 13, 10, 7, 4, 6, 12, 26, 0)
s = 67: (0, 31, 12, 9, 24, 7, 9, 6, 5, 11, 19, 0)
s = 68: (0, 38, 17, 17, 23, 5, 8, 4, 5, 14, 25, 0)
s = 69: (0, 47, 17, 12, 12, 6, 8, 4, 6, 11, 27, 0)
s = 70: (0, 38, 25, 13, 13, 7, 7, 4, 4, 12, 20, 0)
s = 71: (0, 36, 22, 9, 32, 4, 10, 5, 5, 13, 20, 0)
s = 72: (0, 19, 13, 15, 23, 5, 13, 4, 4, 12, 28, 0)
s = 73: (0, 35, 24, 11, 21, 9, 7, 5, 4, 11, 32, 0)
s = 74: (0, 28, 19, 10, 14, 7, 7, 8, 5, 13, 25, 0)
s = 75: (0, 43, 23, 14, 23, 7, 11, 4, 4, 20, 18, 0)
s = 76: (0, 41, 20, 17, 17, 8, 8, 3, 6, 11, 35, 0)
s = 77: (0, 30, 16, 11, 21, 6, 8, 4, 6, 11, 34, 0)
s = 78: (0, 24, 22, 12, 20, 3, 6, 8, 6, 15, 22, 0)
s = 79: (0, 23, 18, 11, 12, 5, 7, 3, 9, 26, 25, 0)
s = 80: (0, 24, 22, 14, 22, 4, 9, 7, 6, 27, 30, 0)
s = 81: (0, 36, 28, 20, 19, 8, 11, 5, 5, 14, 28, 0)
s = 82: (0, 40, 23, 10, 22, 6, 7, 5, 8, 18, 30, 0)
s = 83: (0, 40, 11, 9, 16, 5, 6, 4, 8, 16, 16, 0)
s = 84: (0, 36, 21, 22, 15, 4, 8, 3, 5, 18, 23, 0)
s = 85: (0, 24, 23, 15, 20, 5, 9, 5, 6, 19, 26, 0)
s = 86: (0, 50, 21, 9, 20, 5, 9, 4, 6, 14, 19, 0)
s = 87: (0, 25, 22, 14, 25, 7, 11, 5, 7, 12, 31, 0)
s = 88: (0, 24, 20, 11, 19, 5, 13, 4, 4, 18, 16, 0)
s = 89: (0, 38, 21, 12, 15, 5, 7, 6, 8, 15, 19, 0)
s = 90: (0, 25, 18, 11, 16, 8, 8, 4, 6, 10, 28, 0)
s = 91: (0, 40, 20, 10, 20, 6, 9, 6, 3, 14, 34, 0)
s = 92: (0, 26, 13, 13, 26, 4, 11, 8, 4, 10, 15, 0)
s = 93: (0, 38, 16, 11, 18, 4, 15, 4, 5, 11, 19, 0)
s = 94: (0, 25, 19, 12, 17, 5, 6, 6, 5, 15, 30, 0)
s = 95: (0, 37, 15, 16, 22, 4, 10, 4, 5, 19, 25, 0)
s = 96: (0, 44, 40, 15, 17, 9, 7, 3, 6, 12, 15, 0)
s = 97: (0, 24, 25, 15, 15, 5, 9, 4, 5, 12, 17, 0)
s = 98: (0, 50, 17, 14, 16, 6, 13, 5, 5, 14, 27, 0)
s = 99: (0, 31, 19, 9, 15, 7, 9, 4, 7, 15, 18, 0)
s = 100: (0, 37, 13, 11, 20, 4, 7, 4, 6, 18, 33, 0)
s = 101: (0, 43, 21, 11, 16, 6, 5, 5, 8, 17, 24, 0)
s = 102: (0, 30, 21, 20, 20, 5, 11, 4, 8, 21, 16, 0)
s = 103: (0, 28, 24, 16, 28, 4, 7, 4, 7, 13, 28, 0)
s = 104: (0, 51, 26, 21, 24, 5, 9, 4, 5, 15, 21, 0)
s = 105: (0, 42, 15, 10, 28, 5, 8, 7, 4, 21, 20, 0)
s = 106: (0, 43, 28, 17, 18, 6, 10, 6, 6, 18, 39, 0)
s = 107: (0, 32, 26, 10, 16, 4, 10, 4, 6, 17, 20, 0)
s = 108: (0, 23, 23, 18, 24, 8, 8, 4, 10, 10, 35, 0)
s = 109: (0, 38, 23, 22, 13, 3, 6, 3, 9, 10, 42, 0)
s = 110: (0, 31, 26, 19, 26, 6, 7, 4, 4, 12, 40, 0)
s = 111: (0, 34, 20, 17, 23, 5, 6, 5, 4, 10, 20, 0)
s = 112: (0, 24, 19, 9, 18, 7, 6, 3, 4, 18, 18, 0)
s = 113: (0, 25, 21, 12, 22, 3, 5, 4, 3, 19, 31, 0)
s = 114: (0, 24, 15, 13, 22, 8, 8, 4, 4, 12, 20, 0)
s = 115: (0, 24, 15, 13, 14, 8, 7, 7, 6, 11, 41, 0)
s = 116: (0, 44, 24, 12, 14, 4, 11, 5, 9, 18, 23, 0)
s = 117: (0, 30, 17, 20, 14, 3, 7, 4, 7, 19, 20, 0)
s = 118: (0, 21, 20, 25, 27, 7, 6, 6, 6, 13, 26, 0)
s = 119: (0, 21, 19, 11, 28, 6, 7, 4, 9, 14, 23, 0)
s = 120: (0, 32, 18, 11, 22, 7, 14, 8, 7, 10, 25, 0)
s = 121: (0, 47, 14, 10, 15, 4, 11, 4, 7, 16, 28, 0)
s = 122: (0, 28, 16, 15, 35, 3, 8, 7, 6, 16, 17, 0)
s = 123: (0, 29, 20, 15, 24, 9, 6, 5, 7, 14, 14, 0)
s = 124: (0, 41, 16, 19, 20, 7, 10, 3, 4, 16, 25, 0)
s = 125: (0, 26, 38, 19, 21, 7, 10, 5, 7, 17, 22, 0)
s = 126: (0, 22, 28, 16, 31, 4, 7, 3, 4, 14, 24, 0)
s = 127: (0, 23, 16, 17, 22, 5, 8, 6, 4, 10, 24, 0)
s = 128: (0, 57, 20, 16, 16, 6, 8, 4, 6, 23, 35, 0)
s = 129: (0, 41, 14, 14, 22, 7, 5, 3, 6, 22, 39, 0)
s = 130: (0, 30, 26, 13, 19, 4, 10, 4, 7, 21, 38, 0)
s = 131: (0, 29, 24, 11, 15, 7, 8, 4, 5, 11, 24, 0)
s = 132: (0, 35, 13, 20, 16, 4, 8, 5, 5, 11, 21, 0)
s = 133: (0, 30, 27, 11, 16, 5, 7, 6, 5, 26, 39, 0)
s = 134: (0, 23, 25, 11, 22, 7, 7, 5, 5, 14, 22, 0)
s = 135: (0, 36, 20, 14, 18, 6, 11, 4, 6, 18, 32, 0)
s = 136: (0, 35, 12, 14, 21, 4, 7, 3, 5, 9, 22, 0)
s = 137: (0, 29, 21, 15, 14, 3, 9, 3, 6, 16, 40, 0)
s = 138: (0, 31, 21, 11, 34, 6, 8, 4, 6, 11, 27, 0)
s = 139: (0, 26, 22, 14, 25, 5, 11, 6, 6, 13, 31, 0)
s = 140: (0, 41, 19, 17, 19, 4, 8, 6, 4, 10, 31, 0)
s = 141: (0, 35, 18, 14, 21, 7, 5, 5, 5, 20, 29, 0)
s = 142: (0, 49, 31, 12, 15, 7, 7, 6, 4, 21, 28, 0)
s = 143: (0, 49, 22, 11, 23, 5, 11, 4, 3, 20, 37, 0)
s = 144: (0, 32, 20, 15, 34, 7, 7, 4, 6, 17, 23, 0)
s = 145: (0, 34, 20, 13, 18, 9, 5, 6, 5, 25, 27, 0)
s = 146: (0, 23, 28, 14, 17, 4, 11, 7, 9, 12, 33, 0)
s = 147: (0, 55, 14, 16, 15, 7, 7, 6, 4, 13, 27, 0)
s = 148: (0, 27, 12, 12, 20, 4, 6, 7, 7, 12, 18, 0)
s = 149: (0, 40, 20, 15, 20, 4, 10, 4, 6, 19, 18, 0)
s = 150: (0, 47, 15, 14, 14, 4, 8, 6, 7, 18, 18, 0)
s = 151: (0, 27, 28, 11, 29, 8, 7, 6, 4, 21, 18, 0)
s = 152: (0, 38, 28, 19, 17, 6, 6, 4, 5, 14, 18, 0)
s = 153: (0, 55, 21, 11, 27, 6, 10, 3, 4, 18, 26, 0)
s = 154: (0, 46, 32, 16, 13, 4, 8, 4, 8, 14, 28, 0)
s = 155: (0, 20, 15, 15, 29, 7, 17, 5, 5, 11, 28, 0)
s = 156: (0, 25, 15, 9, 24, 4, 9, 4, 7, 19, 21, 0)
s = 157: (0, 20, 21, 15, 19, 6, 7, 6, 6, 20, 19, 0)
s = 158: (0, 31, 16, 14, 15, 5, 7, 5, 7, 13, 38, 0)
s = 159: (0, 41, 16, 11, 23, 5, 10, 4, 5, 19, 19, 0)
s = 160: (0, 29, 31, 16, 17, 4, 9, 3, 4, 23, 19, 0)
s = 161: (0, 18, 15, 15, 13, 6, 11, 3, 4, 9, 15, 0)
s = 162: (0, 33, 21, 15, 17, 6, 6, 5, 6, 15, 23, 0)
s = 163: (0, 35, 25, 12, 13, 4, 6, 3, 5, 18, 21, 0)
s = 164: (0, 24, 17, 17, 21, 6, 10, 5, 5, 14, 24, 0)
s = 165: (0, 24, 19, 17, 23, 5, 8, 4, 5, 20, 20, 0)
s = 166: (0, 32, 18, 18, 15, 4, 6, 3, 6, 15, 21, 0)
s = 167: (0, 20, 20, 13, 16, 6, 10, 4, 4, 13, 21, 0)
s = 168: (0, 22, 32, 9, 22, 7, 7, 5, 5, 17, 38, 0)
s = 169: (0, 37, 21, 13, 19, 3, 11, 5, 5, 21, 19, 0)
s = 170: (0, 43, 33, 12, 29, 7, 6, 4, 4, 21, 19, 0)
s = 171: (0, 20, 21, 12, 17, 7, 5, 4, 6, 16, 22, 0)
s = 172: (0, 32, 13, 11, 18, 7, 11, 6, 5, 20, 17, 0)
s = 173: (0, 45, 13, 14, 21, 5, 5, 6, 4, 22, 18, 0)
s = 174: (0, 37, 11, 13, 17, 7, 7, 4, 5, 14, 33, 0)
s = 175: (0, 23, 14, 11, 24, 4, 6, 4, 5, 15, 30, 0)
s = 176: (0, 39, 25, 14, 16, 4, 6, 4, 4, 11, 26, 0)
s = 177: (0, 31, 27, 24, 22, 3, 11, 5, 5, 18, 21, 0)
s = 178: (0, 25, 22, 14, 12, 7, 8, 3, 7, 12, 40, 0)
s = 179: (0, 22, 21, 14, 27, 4, 7, 5, 8, 10, 18, 0)
s = 180: (0, 26, 25, 11, 27, 5, 10, 4, 9, 17, 24, 0)
s = 181: (0, 25, 27, 12, 21, 4, 10, 5, 8, 22, 24, 0)
s = 182: (0, 49, 21, 17, 24, 5, 10, 5, 9, 19, 20, 0)
s = 183: (0, 44, 16, 12, 19, 6, 10, 3, 8, 14, 18, 0)
s = 184: (0, 32, 22, 13, 13, 8, 6, 6, 5, 16, 18, 0)
s = 185: (0, 49, 16, 20, 14, 4, 5, 3, 5, 15, 13, 0)
s = 186: (0, 35, 25, 17, 23, 5, 7, 5, 5, 11, 20, 0)
s = 187: (0, 53, 21, 21, 24, 7, 7, 5, 6, 22, 25, 0)
s = 188: (0, 47, 16, 12, 19, 10, 7, 3, 6, 19, 26, 0)
s = 189: (0, 20, 19, 19, 27, 4, 6, 5, 6, 22, 18, 0)
s = 190: (0, 26, 13, 14, 14, 4, 11, 5, 7, 18, 19, 0)
s = 191: (0, 49, 17, 20, 26, 6, 9, 6, 6, 15, 15, 0)
s = 192: (0, 19, 24, 13, 28, 6, 5, 5, 6, 18, 24, 0)
s = 193: (0, 29, 25, 18, 27, 4, 11, 5, 5, 18, 30, 0)
s = 194: (0, 37, 16, 12, 30, 7, 8, 6, 7, 14, 27, 0)
s = 195: (0, 20, 23, 12, 12, 6, 6, 6, 4, 22, 23, 0)
s = 196: (0, 35, 15, 14, 21, 7, 8, 4, 6, 25, 19, 0)
s = 197: (0, 30, 22, 21, 22, 5, 9, 4, 5, 10, 26, 0)
s = 198: (0, 33, 22, 12, 15, 8, 6, 4, 5, 13, 20, 0)
s = 199: (0, 21, 27, 22, 11, 4, 10, 5, 5, 14, 25, 0)
s = 200: (0, 47, 16, 14, 19, 5, 10, 5, 6, 24, 31, 0)
************************************************************************
ES/LS-VALUES:
jobnr.   ES(i)    LS(i)
------------------------------------------------------------------------
  0        0        0
  1        0       58
  2        0       58
  3        0       59
  4        3       63
  5        8       66
  6        3       69
  7        7       66
  8       10       74
  9       10       70
 10       10       68
 11       17       76
************************************************************************
BIG-M-VALUES:
M1 = 29, M2 = 163
************************************************************************
